(define-sort Feature () Bool)
(declare-const G Feature)
(declare-const A Feature)
(declare-const M Feature)
(declare-const L Feature)
(declare-const C Feature)
(declare-const R Feature)
(declare-const B Feature)
(declare-const N Feature)
(declare-const W Feature)
(declare-const V Feature)
(declare-const Y Feature)
(declare-const P Feature)
(declare-const S Feature)

(assert G)
(assert (and
   (= A G)
   (= M A)
   (= L A)
   (= C G)
   (= R G)
   (= (or B  N  W ) R)
   (not (and B N))
   (not (and B W))
   (not (and N W))
   (= V G)
   (= Y V)
   (= P V)
   (=> S V)
))

(push)
(assert (and P S))
(assert (and P P W S))
(check-sat)
(pop)
(push)
(assert (and P S))
(assert (and P P (not W) S))
(check-sat)
(pop)
(push)
(assert (and P S))
(assert (and B S S S))
(check-sat)
(pop)
(push)
(assert (and P S))
(assert (and N S S S))
(check-sat)
(pop)
(push)
(assert (and P S))
(assert (and (or W (not S)) P S S))
(check-sat)
(pop)
(push)
(assert (and P S))
(assert (and G G S S))
(check-sat)
(pop)
(push)
(assert (and P S))
(assert (and N N N N))
(check-sat)
(pop)
(push)
(assert (and P S))
(assert (and N N W W))
(check-sat)
(pop)
(push)
(assert (and P S))
(assert (and N N B B))
(check-sat)
(pop)
(push)
(assert (and P S))
(assert (and W W N N))
(check-sat)
(pop)
(push)
(assert (and P S))
(assert (and W W W W))
(check-sat)
(pop)
(push)
(assert (and P S))
(assert (and W W B B))
(check-sat)
(pop)
(push)
(assert (and P S))
(assert (and B B N N))
(check-sat)
(pop)
(push)
(assert (and P S))
(assert (and B B W W))
(check-sat)
(pop)
(push)
(assert (and P S))
(assert (and B B B B))
(check-sat)
(pop)
